
Gurobi 7.5.2 (linux64) logging started Sat Jul  7 16:00:48 2018

Changed value of parameter LogFile to result/ilp/simNo_5-n_100-m_40-s_4-minVAF_0.05-cov_10000-k_2-fn_0.15-fp_0.0001-na_0.15.ILP.gurobiSolverLog
   Prev: gurobi.log  Default: 
Changed value of parameter TimeLimit to 86400.0
   Prev: 1e+100  Min: 0.0  Max: 1e+100  Default: 1e+100
Optimize a model with 639293 rows, 10765 columns and 1940420 nonzeros
Variable types: 0 continuous, 10765 integer (10765 binary)
Coefficient statistics:
  Matrix range     [3e-05, 4e+00]
  Objective range  [2e+00, 1e+01]
  Bounds range     [1e+00, 1e+00]
  RHS range        [9e-02, 2e+00]
Found heuristic solution: objective -8350.080914
Presolve removed 136647 rows and 1053 columns (presolve time = 5s) ...
Presolve removed 137255 rows and 1053 columns (presolve time = 11s) ...
Presolve removed 198055 rows and 1661 columns (presolve time = 16s) ...
Presolve removed 198055 rows and 1661 columns
Presolve time: 16.74s
Presolved: 441238 rows, 9104 columns, 1325091 nonzeros
Variable types: 0 continuous, 9104 integer (9104 binary)
Presolved: 9104 rows, 450342 columns, 1334195 nonzeros

Presolve removed 9104 rows and 450342 columns

Root simplex log...

Iteration    Objective       Primal Inf.    Dual Inf.      Time
       0    2.5525224e+01   0.000000e+00   4.344400e+04     20s
   10008   -1.6607970e+02   0.000000e+00   0.000000e+00     22s
   10008   -1.6607970e+02   0.000000e+00   0.000000e+00     23s

Root relaxation: objective -1.660797e+02, 10008 iterations, 4.75 seconds
Total elapsed time = 30.77s
Total elapsed time = 37.06s
Total elapsed time = 42.66s

    Nodes    |    Current Node    |     Objective Bounds      |     Work
 Expl Unexpl |  Obj  Depth IntInf | Incumbent    BestBd   Gap | It/Node Time

     0     0 -166.07970    0  560 -8350.0809 -166.07970  98.0%     -   45s
H    0     0                    -252.2391526 -166.07970  34.2%     -   48s
H    0     0                    -218.1341371 -166.07970  23.9%     -   51s
     0     0 -170.72333    0  554 -218.13414 -170.72333  21.7%     -   56s
     0     0 -174.43824    0  527 -218.13414 -174.43824  20.0%     -   69s
     0     0 -175.83133    0  547 -218.13414 -175.83133  19.4%     -   79s
     0     0 -175.83133    0  504 -218.13414 -175.83133  19.4%     -   83s
     0     0 -176.29570    0  552 -218.13414 -176.29570  19.2%     -   90s
     0     0 -176.33204    0  711 -218.13414 -176.33204  19.2%     -   94s
     0     0 -176.76006    0  573 -218.13414 -176.76006  19.0%     -   98s
     0     0 -176.76006    0  574 -218.13414 -176.76006  19.0%     -  100s
     0     0 -176.76006    0  518 -218.13414 -176.76006  19.0%     -  105s
     0     0 -176.76006    0  536 -218.13414 -176.76006  19.0%     -  109s
     0     0 -176.76006    0  586 -218.13414 -176.76006  19.0%     -  113s
H    0     0                    -212.5617729 -176.76006  16.8%     -  120s
     0     0 -176.76006    0  586 -212.56177 -176.76006  16.8%     -  121s
     0     0 -177.98864    0  742 -212.56177 -177.98864  16.3%     -  183s
     0     0 -177.99836    0  509 -212.56177 -177.99836  16.3%     -  194s
     0     0 -177.99836    0  510 -212.56177 -177.99836  16.3%     -  197s
     0     0 -178.22221    0  752 -212.56177 -178.22221  16.2%     -  202s
     0     0 -178.52224    0  668 -212.56177 -178.52224  16.0%     -  208s
     0     0 -178.61752    0  490 -212.56177 -178.61752  16.0%     -  211s
     0     0 -178.95455    0  751 -212.56177 -178.95455  15.8%     -  217s
     0     0 -178.97983    0  758 -212.56177 -178.97983  15.8%     -  222s
     0     0 -178.97983    0  767 -212.56177 -178.97983  15.8%     -  224s
     0     0 -179.90856    0  765 -212.56177 -179.90856  15.4%     -  230s
     0     0 -179.90856    0  758 -212.56177 -179.90856  15.4%     -  243s
     0     0 -180.88129    0  579 -212.56177 -180.88129  14.9%     -  251s
     0     0 -180.96954    0  829 -212.56177 -180.96954  14.9%     -  255s
     0     0 -181.00535    0  763 -212.56177 -181.00535  14.8%     -  259s
     0     0 -181.00535    0  762 -212.56177 -181.00535  14.8%     -  261s
     0     0 -182.33243    0  581 -212.56177 -182.33243  14.2%     -  268s
     0     0 -183.14139    0  783 -212.56177 -183.14139  13.8%     -  274s
     0     0 -183.14139    0  785 -212.56177 -183.14139  13.8%     -  276s
     0     0 -183.16751    0  775 -212.56177 -183.16751  13.8%     -  283s
     0     0 -183.16751    0  782 -212.56177 -183.16751  13.8%     -  287s
     0     0 -184.06910    0  708 -212.56177 -184.06910  13.4%     -  295s
     0     0 -184.41373    0  697 -212.56177 -184.41373  13.2%     -  300s
     0     0 -184.60588    0  763 -212.56177 -184.60588  13.2%     -  304s
     0     0 -184.69840    0  780 -212.56177 -184.69840  13.1%     -  307s
     0     0 -184.71108    0  783 -212.56177 -184.71108  13.1%     -  312s
     0     0 -184.72294    0  785 -212.56177 -184.72294  13.1%     -  315s
     0     0 -184.72367    0  785 -212.56177 -184.72367  13.1%     -  317s
     0     0 -185.35079    0  483 -212.56177 -185.35079  12.8%     -  324s
     0     0 -185.91086    0  641 -212.56177 -185.91086  12.5%     -  330s
     0     0 -185.97016    0  777 -212.56177 -185.97016  12.5%     -  334s
     0     0 -185.97315    0  776 -212.56177 -185.97315  12.5%     -  337s
     0     0 -185.98126    0  651 -212.56177 -185.98126  12.5%     -  341s
     0     0 -185.98126    0  650 -212.56177 -185.98126  12.5%     -  344s
     0     0 -186.51864    0  652 -212.56177 -186.51864  12.3%     -  350s
     0     0 -186.62167    0  787 -212.56177 -186.62167  12.2%     -  356s
     0     0 -186.80502    0  699 -212.56177 -186.80502  12.1%     -  360s
     0     0 -186.86343    0  786 -212.56177 -186.86343  12.1%     -  364s
     0     0 -186.87414    0  793 -212.56177 -186.87414  12.1%     -  366s
     0     0 -186.87414    0  794 -212.56177 -186.87414  12.1%     -  369s
     0     0 -188.30225    0  728 -212.56177 -188.30225  11.4%     -  376s
H    0     0                    -209.9420727 -188.30225  10.3%     -  385s
     0     0 -188.86051    0  723 -209.94207 -188.86051  10.0%     -  388s
     0     0 -188.89543    0  603 -209.94207 -188.89543  10.0%     -  392s
     0     0 -188.89858    0  727 -209.94207 -188.89858  10.0%     -  394s
     0     0 -188.89858    0  724 -209.94207 -188.89858  10.0%     -  397s
     0     0 -189.20815    0  729 -209.94207 -189.20815  9.88%     -  404s
     0     0 -189.23436    0  719 -209.94207 -189.23436  9.86%     -  409s
     0     0 -189.28596    0  731 -209.94207 -189.28596  9.84%     -  412s
     0     0 -189.32723    0  735 -209.94207 -189.32723  9.82%     -  415s
     0     0 -189.34492    0  733 -209.94207 -189.34492  9.81%     -  417s
     0     0 -189.36101    0  734 -209.94207 -189.36101  9.80%     -  419s
     0     0 -189.37094    0  736 -209.94207 -189.37094  9.80%     -  422s
     0     0 -189.37094    0  736 -209.94207 -189.37094  9.80%     -  424s
     0     0 -189.68264    0  786 -209.94207 -189.68264  9.65%     -  431s
     0     0 -189.74165    0  739 -209.94207 -189.74165  9.62%     -  436s
     0     0 -189.77321    0  800 -209.94207 -189.77321  9.61%     -  439s
     0     0 -189.78375    0  804 -209.94207 -189.78375  9.60%     -  442s
     0     0 -189.78544    0  804 -209.94207 -189.78544  9.60%     -  445s
     0     0 -190.06236    0  801 -209.94207 -190.06236  9.47%     -  452s
     0     0 -190.28767    0  793 -209.94207 -190.28767  9.36%     -  458s
     0     0 -190.32389    0  803 -209.94207 -190.32389  9.34%     -  461s
     0     0 -190.37254    0  801 -209.94207 -190.37254  9.32%     -  464s
     0     0 -190.37254    0  803 -209.94207 -190.37254  9.32%     -  466s
     0     0 -190.96741    0  794 -209.94207 -190.96741  9.04%     -  474s
     0     0 -191.14975    0  798 -209.94207 -191.14975  8.95%     -  479s
     0     0 -191.15440    0  804 -209.94207 -191.15440  8.95%     -  481s
     0     0 -191.19999    0  809 -209.94207 -191.19999  8.93%     -  483s
     0     0 -191.20179    0  807 -209.94207 -191.20179  8.93%     -  486s
     0     0 -192.36688    0  743 -209.94207 -192.36688  8.37%     -  495s
     0     0 -192.42652    0  752 -209.94207 -192.42652  8.34%     -  506s
     0     0 -192.63941    0  750 -209.94207 -192.63941  8.24%     -  510s
     0     0 -192.66723    0  805 -209.94207 -192.66723  8.23%     -  514s
     0     0 -192.73436    0  751 -209.94207 -192.73436  8.20%     -  517s
     0     0 -192.80118    0  808 -209.94207 -192.80118  8.16%     -  520s
     0     0 -192.80392    0  808 -209.94207 -192.80392  8.16%     -  522s
     0     0 -192.80467    0  807 -209.94207 -192.80467  8.16%     -  525s
     0     0 -193.30286    0  806 -209.94207 -193.30286  7.93%     -  532s
     0     0 -193.75871    0  746 -209.94207 -193.75871  7.71%     -  537s
     0     0 -193.85826    0  804 -209.94207 -193.85826  7.66%     -  540s
     0     0 -193.89014    0  808 -209.94207 -193.89014  7.65%     -  545s
     0     0 -193.89524    0  810 -209.94207 -193.89524  7.64%     -  547s
     0     0 -193.89524    0  812 -209.94207 -193.89524  7.64%     -  549s
     0     0 -194.22412    0  799 -209.94207 -194.22412  7.49%     -  556s
     0     0 -194.39720    0  802 -209.94207 -194.39720  7.40%     -  562s
     0     0 -194.49273    0  805 -209.94207 -194.49273  7.36%     -  566s
     0     0 -194.51428    0  806 -209.94207 -194.51428  7.35%     -  569s
     0     0 -194.51454    0  809 -209.94207 -194.51454  7.35%     -  571s
     0     0 -194.72386    0  808 -209.94207 -194.72386  7.25%     -  578s
     0     0 -194.72918    0  815 -209.94207 -194.72918  7.25%     -  583s
     0     0 -194.98094    0  801 -209.94207 -194.98094  7.13%     -  586s
     0     0 -195.01040    0  808 -209.94207 -195.01040  7.11%     -  590s
     0     0 -195.01942    0  810 -209.94207 -195.01942  7.11%     -  592s
     0     0 -195.02561    0  813 -209.94207 -195.02561  7.11%     -  595s
     0     0 -195.02561    0  815 -209.94207 -195.02561  7.11%     -  597s
     0     0 -195.74374    0  801 -209.94207 -195.74374  6.76%     -  605s
H    0     0                    -208.0846179 -195.74374  5.93%     -  614s
     0     0 -195.79170    0  799 -208.08462 -195.79170  5.91%     -  616s
     0     0 -195.84756    0  796 -208.08462 -195.84756  5.88%     -  619s
     0     0 -195.84760    0  799 -208.08462 -195.84760  5.88%     -  622s
     0     0 -195.84810    0  803 -208.08462 -195.84810  5.88%     -  630s
     0     0 -195.84810    0  803 -208.08462 -195.84810  5.88%     -  634s
     0     0 -196.05008    0  795 -208.08462 -196.05008  5.78%     -  641s
     0     0 -196.05798    0  802 -208.08462 -196.05798  5.78%     -  646s
     0     0 -196.07365    0  801 -208.08462 -196.07365  5.77%     -  649s
     0     0 -196.09463    0  801 -208.08462 -196.09463  5.76%     -  651s
     0     0 -196.09885    0  802 -208.08462 -196.09885  5.76%     -  654s
     0     0 -196.09885    0  802 -208.08462 -196.09885  5.76%     -  656s
     0     0 -196.09885    0  806 -208.08462 -196.09885  5.76%     -  662s
     0     0 -196.12480    0  812 -208.08462 -196.12480  5.75%     -  667s
     0     0 -196.15208    0  812 -208.08462 -196.15208  5.73%     -  670s
     0     0 -196.17060    0  809 -208.08462 -196.17060  5.73%     -  673s
     0     0 -196.17081    0  812 -208.08462 -196.17081  5.73%     -  676s
     0     0 -196.28365    0  807 -208.08462 -196.28365  5.67%     -  683s
     0     0 -196.31514    0  805 -208.08462 -196.31514  5.66%     -  688s
     0     0 -196.32332    0  811 -208.08462 -196.32332  5.65%     -  690s
     0     0 -196.33782    0  813 -208.08462 -196.33782  5.65%     -  693s
     0     0 -196.36337    0  810 -208.08462 -196.36337  5.63%     -  695s
     0     0 -196.36892    0  812 -208.08462 -196.36892  5.63%     -  698s
     0     0 -196.36986    0  814 -208.08462 -196.36986  5.63%     -  701s
     0     0 -196.47229    0  806 -208.08462 -196.47229  5.58%     -  709s
     0     0 -196.49298    0  811 -208.08462 -196.49298  5.57%     -  715s
     0     0 -196.49571    0  810 -208.08462 -196.49571  5.57%     -  718s
     0     0 -196.49574    0  811 -208.08462 -196.49574  5.57%     -  726s
     0     0 -196.49574    0  810 -208.08462 -196.49574  5.57%     -  730s
     0     0 -196.52402    0  800 -208.08462 -196.52402  5.56%     -  786s
     0     0 -196.52402    0  797 -208.08462 -196.52402  5.56%     -  797s
     0     2 -196.54559    0  793 -208.08462 -196.54559  5.55%     -  872s
     1     3 -198.03977    1  619 -208.08462 -196.54589  5.55%  1631  877s
     2     4 -200.92015    2  468 -208.08462 -196.54589  5.55%  1180  882s
     4     6 -204.98886    3  323 -208.08462 -196.54589  5.55%   690  885s
    11     7 -199.56780    1  644 -208.08462 -198.04521  4.82%   484  892s
    13     9 -202.65535    3  476 -208.08462 -198.04521  4.82%   438  895s
    20    12 -207.91814    7  200 -208.08462 -198.04521  4.82%   308  900s
    23    11 -204.29756    2  475 -208.08462 -199.60827  4.07%   351  906s
    30    10     cutoff    5      -208.08462 -199.60827  4.07%   291  910s
    36    10 -202.19396    2  627 -208.08462 -202.19396  2.83%   275  916s
    38    12 -206.66100    4  476 -208.08462 -202.19396  2.83%   277  920s
    44     9 -203.44098    4  441 -208.08462 -202.51225  2.68%   255  925s
    52    11 -207.15589    7  262 -208.08462 -202.51225  2.68%   228  931s
    61    12 -206.84631    8  214 -208.08462 -202.51225  2.68%   198  935s
    72    11 -206.22716    5  232 -208.08462 -202.65535  2.61%   181  941s
    77    10 -207.91814    6  328 -208.08462 -203.24990  2.32%   174  945s
    86    13 -206.06068    7  253 -208.08462 -203.44098  2.23%   159  950s
   100     8     cutoff    5      -208.08462 -204.98886  1.49%   141  955s
   111     5 -206.98941    6  211 -208.08462 -206.37026  0.82%   132  960s

Cutting planes:
  Gomory: 1
  MIR: 1
  Zero half: 131

Explored 119 nodes (79698 simplex iterations) in 961.84 seconds
Thread count was 1 (of 80 available processors)

Solution count 6: -208.085 -209.942 -212.562 ... -8350.08

Optimal solution found (tolerance 1.00e-04)
Best objective -2.080846179359e+02, best bound -2.080846179359e+02, gap 0.0000%
